Route #1: 14 73 8 119 33 104 140 126 173 4 24 85
Route #2: 65 50 92 44 138 21 147 55 48 179 70 63 148 158
Route #3: 124 152 166 153 143 123 120 165 34 132 117 64 177 49
Route #4: 127 141 167 56 62 57 46 76 146 169 137 125 47
Route #5: 130 131 10 6 133 160 25 109 105 23 32 31 22
Route #6: 72 121 18 116 103 163 144 1 90 7 185 15 37 59 88
Route #7: 87 52 114 142 156 79 113 178 174 96 101 40
Route #8: 161 3 149 110 80 17 157 61 36 118 115 100
Route #9: 107 29 150 106 81 75 78 134 83 51 136 145 164
Route #10: 26 67 42 86 53 181 170 108 43 41 38 111
Route #11: 154 5 162 168 95 39 91 45 128 74 12 129
Route #12: 175 82 97 102 139 122 151 98 89 27 84 99
Route #13: 184 71 135 66 20 112 54 94 11 180 35 19 16
Route #14: 28 93 30 182 183 9 77 159 69 2 60
Route #15: 172 68 155 58 176 13 171
